c Result of efficient AIG-to-CNF conversion using package CNF
p cnf 783 2639
-2 -719 679 0
-2 -3 -612 679 0
-2 3 612 679 0
2 -679 0
2 719 -3 612 0
2 719 3 -612 0
-3 4 574 0
3 -4 0
3 -574 0
4 -782 -5 0
-4 782 0
-4 5 0
-5 6 528 0
-5 -6 -528 0
5 -6 528 0
5 6 -528 0
6 7 -488 0
-6 -7 0
-6 488 0
-7 -8 -438 0
-7 8 438 0
7 8 -438 0
7 -8 438 0
-8 9 400 0
-8 -9 -400 0
8 -9 400 0
8 9 -400 0
9 -10 363 0
-9 10 0
-9 -363 0
10 11 -329 0
-10 -11 0
-10 329 0
-11 12 297 0
-11 -12 -297 0
11 -12 297 0
11 12 -297 0
12 13 -270 0
-12 -13 0
-12 270 0
-13 14 239 0
-13 -14 -239 0
13 -14 239 0
13 14 -239 0
14 -15 213 0
-14 15 0
-14 -213 0
15 16 -183 0
-15 -16 0
-15 183 0
-16 -17 -164 0
-16 17 164 0
16 17 -164 0
16 -17 164 0
-17 -18 -143 0
-17 18 143 0
17 18 -143 0
17 -18 143 0
-18 19 123 0
-18 -19 -123 0
18 -19 123 0
18 19 -123 0
19 20 -100 0
-19 -20 0
-19 100 0
-20 -21 -89 0
-20 21 89 0
20 21 -89 0
20 -21 89 0
-21 22 77 0
-21 -22 -77 0
21 -22 77 0
21 22 -77 0
22 23 -59 0
-22 -23 0
-22 59 0
-23 -24 -54 0
-23 24 54 0
23 24 -54 0
23 -24 54 0
-24 -25 -39 0
-24 25 39 0
24 25 -39 0
24 -25 39 0
-25 26 29 0
-25 -26 -29 0
25 -26 29 0
25 26 -29 0
26 761 768 -769 27 0
-26 -761 0
-26 -27 0
-26 769 0
-26 -768 0
-27 762 767 28 0
27 -28 0
27 -767 0
27 -762 0
-28 763 764 765 766 0
28 -766 0
28 -765 0
28 -763 0
28 -764 0
-29 30 32 0
-29 -30 -32 0
29 -30 32 0
29 30 -32 0
30 -768 31 0
-30 768 0
-30 -31 0
-31 761 27 0
31 -761 0
31 -27 0
-32 -33 -38 0
-32 33 38 0
32 33 -38 0
32 -33 38 0
33 34 -36 0
33 760 -36 0
-33 36 0
-33 -760 -34 0
-34 765 766 35 0
34 -35 0
34 -766 0
34 -765 0
-35 761 762 763 764 0
35 -764 0
35 -763 0
35 -761 0
35 -762 0
-36 766 37 0
36 -766 0
36 -37 0
-37 760 765 35 0
37 -35 0
37 -765 0
37 -760 0
38 -767 34 0
-38 767 0
-38 -34 0
39 40 -46 0
-39 -40 0
-39 46 0
-40 -42 -43 0
-40 -41 42 0
-40 769 42 0
40 -42 43 0
40 -769 41 42 0
-41 768 27 0
41 -768 0
41 -27 0
-42 -761 -768 0
-42 -761 -27 0
-42 761 768 27 0
42 761 -768 0
42 761 -27 0
42 -761 768 27 0
43 -769 41 44 0
-43 769 0
-43 -41 0
-43 -44 0
-44 28 45 0
44 -28 0
44 -45 0
-45 767 768 0
45 -767 0
45 -768 0
46 47 -50 0
-46 -47 0
-46 50 0
-47 -48 -49 0
-47 48 49 0
47 48 -49 0
47 -48 49 0
48 -41 44 0
48 762 -41 0
-48 41 0
-48 -762 -44 0
49 -769 44 0
-49 769 0
-49 -44 0
50 -770 51 0
-50 770 0
-50 -51 0
-51 763 52 0
51 -763 0
51 -52 0
-52 764 769 53 0
52 -53 0
52 -769 0
52 -764 0
-53 765 766 45 0
53 -45 0
53 -766 0
53 -765 0
54 55 -56 0
-54 -55 0
-54 56 0
-55 -40 -46 0
-55 40 46 0
55 40 -46 0
55 -40 46 0
56 57 -58 0
-56 -57 0
-56 58 0
-57 -47 -50 0
-57 47 50 0
57 47 -50 0
57 -47 50 0
58 763 770 -771 52 0
-58 -763 0
-58 -52 0
-58 771 0
-58 -770 0
59 60 -61 0
-59 -60 0
-59 61 0
-60 -55 -56 0
-60 55 56 0
60 55 -56 0
60 -55 56 0
61 62 -63 0
-61 -62 0
-61 63 0
-62 -57 -58 0
-62 57 58 0
62 57 -58 0
62 -57 58 0
63 64 -69 0
-63 -64 0
-63 69 0
-64 -66 -67 0
-64 -65 66 0
-64 771 66 0
64 -66 67 0
64 -771 65 66 0
-65 770 52 0
65 -770 0
65 -52 0
-66 -763 -770 0
-66 -763 -52 0
-66 763 770 52 0
66 763 -770 0
66 763 -52 0
66 -763 770 52 0
67 -771 65 68 0
-67 771 0
-67 -65 0
-67 -68 0
-68 769 770 53 0
68 -53 0
68 -770 0
68 -769 0
69 70 -73 0
-69 -70 0
-69 73 0
-70 -71 -72 0
-70 71 72 0
70 71 -72 0
70 -71 72 0
71 -65 68 0
71 764 -65 0
-71 65 0
-71 -764 -68 0
72 -771 68 0
-72 771 0
-72 -68 0
73 -772 74 0
-73 772 0
-73 -74 0
-74 765 75 0
74 -765 0
74 -75 0
-75 766 771 76 0
75 -76 0
75 -771 0
75 -766 0
-76 769 770 45 0
76 -45 0
76 -770 0
76 -769 0
-77 78 79 0
-77 -78 -79 0
77 -78 79 0
77 78 -79 0
78 24 -54 0
-78 -24 0
-78 54 0
-79 80 81 0
-79 -80 -81 0
79 -80 81 0
79 80 -81 0
80 25 -39 0
-80 -25 0
-80 39 0
-81 82 83 0
-81 -82 -83 0
81 -82 83 0
81 82 -83 0
82 -26 29 0
-82 26 0
-82 -29 0
-83 84 85 0
-83 -84 -85 0
83 -84 85 0
83 84 -85 0
84 -30 32 0
-84 30 0
-84 -32 0
-85 -86 88 0
-85 87 88 0
85 -88 0
85 86 -87 0
86 -767 34 36 0
-86 767 0
-86 -34 0
-86 -36 0
-87 -759 -766 0
-87 -759 -37 0
-87 759 766 37 0
87 759 -766 0
87 759 -37 0
87 -759 766 37 0
88 759 766 -767 37 0
-88 -759 0
-88 -37 0
-88 767 0
-88 -766 0
89 90 -91 0
-89 -90 0
-89 91 0
-90 -23 -59 0
-90 23 59 0
90 23 -59 0
90 -23 59 0
91 92 -93 0
-91 -92 0
-91 93 0
-92 -60 -61 0
-92 60 61 0
92 60 -61 0
92 -60 61 0
93 94 -95 0
-93 -94 0
-93 95 0
-94 -62 -63 0
-94 62 63 0
94 62 -63 0
94 -62 63 0
95 96 -97 0
-95 -96 0
-95 97 0
-96 -64 -69 0
-96 64 69 0
96 64 -69 0
96 -64 69 0
97 98 -99 0
-97 -98 0
-97 99 0
-98 -70 -73 0
-98 70 73 0
98 70 -73 0
98 -70 73 0
99 765 772 -773 75 0
-99 -765 0
-99 -75 0
-99 773 0
-99 -772 0
100 101 -102 0
-100 -101 0
-100 102 0
-101 -90 -91 0
-101 90 91 0
101 90 -91 0
101 -90 91 0
102 103 -104 0
-102 -103 0
-102 104 0
-103 -92 -93 0
-103 92 93 0
103 92 -93 0
103 -92 93 0
104 105 -106 0
-104 -105 0
-104 106 0
-105 -94 -95 0
-105 94 95 0
105 94 -95 0
105 -94 95 0
106 107 -108 0
-106 -107 0
-106 108 0
-107 -96 -97 0
-107 96 97 0
107 96 -97 0
107 -96 97 0
108 109 -110 0
-108 -109 0
-108 110 0
-109 -98 -99 0
-109 98 99 0
109 98 -99 0
109 -98 99 0
110 111 -116 0
-110 -111 0
-110 116 0
-111 112 99 0
-111 99 -113 0
111 -99 0
111 -112 113 0
-112 -765 -772 0
-112 -765 -75 0
-112 765 772 75 0
112 765 -772 0
112 765 -75 0
112 -765 772 75 0
113 -773 114 115 0
-113 773 0
-113 -114 0
-113 -115 0
-114 772 75 0
114 -772 0
114 -75 0
-115 771 772 76 0
115 -76 0
115 -772 0
115 -771 0
116 117 -120 0
-116 -117 0
-116 120 0
-117 -118 -119 0
-117 118 119 0
117 118 -119 0
117 -118 119 0
118 -114 115 0
118 766 -114 0
-118 114 0
-118 -766 -115 0
119 -773 115 0
-119 773 0
-119 -115 0
120 -774 121 0
-120 774 0
-120 -121 0
-121 773 45 122 0
121 -122 0
121 -45 0
121 -773 0
-122 769 770 771 772 0
122 -772 0
122 -771 0
122 -769 0
122 -770 0
-123 124 125 0
-123 -124 -125 0
123 -124 125 0
123 124 -125 0
124 21 -89 0
-124 -21 0
-124 89 0
-125 126 127 0
-125 -126 -127 0
125 -126 127 0
125 126 -127 0
126 -22 77 0
-126 22 0
-126 -77 0
-127 128 129 0
-127 -128 -129 0
127 -128 129 0
127 128 -129 0
128 -78 79 0
-128 78 0
-128 -79 0
-129 130 131 0
-129 -130 -131 0
129 -130 131 0
129 130 -131 0
130 -80 81 0
-130 80 0
-130 -81 0
-131 132 133 0
-131 -132 -133 0
131 -132 133 0
131 132 -133 0
132 -82 83 0
-132 82 0
-132 -83 0
-133 134 135 0
-133 -134 -135 0
133 -134 135 0
133 134 -135 0
134 -84 85 0
-134 84 0
-134 -85 0
-135 88 136 0
-135 -88 -136 0
135 -88 136 0
135 88 -136 0
-136 137 139 0
-136 -137 -139 0
136 -137 139 0
136 137 -139 0
137 -766 138 0
-137 766 0
-137 -138 0
-138 759 37 0
138 -759 0
138 -37 0
-139 -758 -764 0
-139 758 764 765 140 0
-139 -758 -765 0
-139 -758 -140 0
139 758 -140 0
139 -758 764 765 140 0
139 758 -764 0
139 758 -765 0
-140 763 141 0
140 -763 0
140 -141 0
-141 761 762 142 0
141 -142 0
141 -762 0
141 -761 0
-142 759 760 0
142 -759 0
142 -760 0
143 144 -145 0
-143 -144 0
-143 145 0
-144 -20 -100 0
-144 20 100 0
144 20 -100 0
144 -20 100 0
145 146 -147 0
-145 -146 0
-145 147 0
-146 -101 -102 0
-146 101 102 0
146 101 -102 0
146 -101 102 0
147 148 -149 0
-147 -148 0
-147 149 0
-148 -103 -104 0
-148 103 104 0
148 103 -104 0
148 -103 104 0
149 -150 163 0
-149 150 0
-149 -163 0
150 151 -152 0
-150 -151 0
-150 152 0
-151 -107 -108 0
-151 107 108 0
151 107 -108 0
151 -107 108 0
152 153 -154 0
-152 -153 0
-152 154 0
-153 -109 -110 0
-153 109 110 0
153 109 -110 0
153 -109 110 0
154 155 -156 0
-154 -155 0
-154 156 0
-155 -111 -116 0
-155 111 116 0
155 111 -116 0
155 -111 116 0
156 157 -158 0
-156 -157 0
-156 158 0
-157 -117 -120 0
-157 117 120 0
157 117 -120 0
157 -117 120 0
158 159 -162 0
-158 -159 0
-158 162 0
-159 774 121 0
-159 -767 -121 -160 0
159 -774 121 0
159 -121 160 0
159 767 -121 0
-160 768 161 0
160 -768 0
160 -161 0
-161 773 774 122 0
161 -122 0
161 -774 0
161 -773 0
162 -775 160 0
-162 775 0
-162 -160 0
-163 -105 -106 0
-163 105 106 0
163 105 -106 0
163 -105 106 0
164 -165 182 0
-164 165 0
-164 -182 0
165 166 -167 0
-165 -166 0
-165 167 0
-166 -146 -147 0
-166 146 147 0
166 146 -147 0
166 -146 147 0
167 168 -169 0
-167 -168 0
-167 169 0
-168 -148 -149 0
-168 148 149 0
168 148 -149 0
168 -148 149 0
169 170 -171 0
-169 -170 0
-169 171 0
-170 150 163 0
-170 -150 -163 0
170 -150 163 0
170 150 -163 0
171 -172 181 0
-171 172 0
-171 -181 0
172 173 -174 0
-172 -173 0
-172 174 0
-173 -153 -154 0
-173 153 154 0
173 153 -154 0
173 -153 154 0
174 175 -176 0
-174 -175 0
-174 176 0
-175 -155 -156 0
-175 155 156 0
175 155 -156 0
175 -155 156 0
176 177 -178 0
-176 -177 0
-176 178 0
-177 -157 -158 0
-177 157 158 0
177 157 -158 0
177 -157 158 0
178 179 -180 0
-178 -179 0
-178 180 0
-179 -159 -162 0
-179 159 162 0
179 159 -162 0
179 -159 162 0
180 768 775 -776 161 0
-180 -768 0
-180 -161 0
-180 776 0
-180 -775 0
-181 -151 -152 0
-181 151 152 0
181 151 -152 0
181 -151 152 0
-182 -144 -145 0
-182 144 145 0
182 144 -145 0
182 -144 145 0
183 184 -185 0
-183 -184 0
-183 185 0
-184 165 182 0
-184 -165 -182 0
184 -165 182 0
184 165 -182 0
185 186 -187 0
-185 -186 0
-185 187 0
-186 -166 -167 0
-186 166 167 0
186 166 -167 0
186 -166 167 0
187 188 -189 0
-187 -188 0
-187 189 0
-188 -168 -169 0
-188 168 169 0
188 168 -169 0
188 -168 169 0
189 190 -191 0
-189 -190 0
-189 191 0
-190 -170 -171 0
-190 170 171 0
190 170 -171 0
190 -170 171 0
191 192 -193 0
-191 -192 0
-191 193 0
-192 172 181 0
-192 -172 -181 0
192 -172 181 0
192 172 -181 0
193 194 -195 0
-193 -194 0
-193 195 0
-194 -173 -174 0
-194 173 174 0
194 173 -174 0
194 -173 174 0
195 196 -197 0
-195 -196 0
-195 197 0
-196 -175 -176 0
-196 175 176 0
196 175 -176 0
196 -175 176 0
197 198 -199 0
-197 -198 0
-197 199 0
-198 -177 -178 0
-198 177 178 0
198 177 -178 0
198 -177 178 0
199 200 -201 0
-199 -200 0
-199 201 0
-200 -179 -180 0
-200 179 180 0
200 179 -180 0
200 -179 180 0
201 -202 210 0
-201 202 0
-201 -210 0
202 203 -209 0
-202 -203 0
-202 209 0
-203 776 204 0
-203 -769 -204 -205 0
203 -776 204 0
203 -204 205 0
203 769 -204 0
-204 775 161 0
204 -775 0
204 -161 0
-205 770 206 0
205 -770 0
205 -206 0
-206 771 772 207 208 0
206 -771 0
206 -208 0
206 -207 0
206 -772 0
-207 773 774 0
207 -773 0
207 -774 0
-208 775 776 0
208 -775 0
208 -776 0
209 -777 205 0
-209 777 0
-209 -205 0
-210 -211 -212 0
-210 211 212 0
210 211 -212 0
210 -211 212 0
-211 775 160 0
-211 -768 -160 -204 0
211 -775 160 0
211 -160 204 0
211 768 -160 0
212 -776 204 0
-212 776 0
-212 -204 0
-213 214 215 0
-213 -214 -215 0
213 -214 215 0
213 214 -215 0
214 17 -164 0
-214 -17 0
-214 164 0
-215 216 217 0
-215 -216 -217 0
215 -216 217 0
215 216 -217 0
216 18 -143 0
-216 -18 0
-216 143 0
-217 218 219 0
-217 -218 -219 0
217 -218 219 0
217 218 -219 0
218 -19 123 0
-218 19 0
-218 -123 0
-219 220 221 0
-219 -220 -221 0
219 -220 221 0
219 220 -221 0
220 -124 125 0
-220 124 0
-220 -125 0
-221 222 223 0
-221 -222 -223 0
221 -222 223 0
221 222 -223 0
222 -126 127 0
-222 126 0
-222 -127 0
-223 224 225 0
-223 -224 -225 0
223 -224 225 0
223 224 -225 0
224 -128 129 0
-224 128 0
-224 -129 0
-225 226 227 0
-225 -226 -227 0
225 -226 227 0
225 226 -227 0
226 -130 131 0
-226 130 0
-226 -131 0
-227 228 229 0
-227 -228 -229 0
227 -228 229 0
227 228 -229 0
228 -132 133 0
-228 132 0
-228 -133 0
-229 230 231 0
-229 -230 -231 0
229 -230 231 0
229 230 -231 0
230 -134 135 0
-230 134 0
-230 -135 0
-231 232 233 0
-231 -232 -233 0
231 -232 233 0
231 232 -233 0
232 -88 136 0
-232 88 0
-232 -136 0
-233 234 235 0
-233 -234 -235 0
233 -234 235 0
233 234 -235 0
234 -137 139 0
-234 137 0
-234 -139 0
-235 236 237 0
-235 -236 -237 0
235 -236 237 0
235 236 -237 0
236 758 764 -765 140 0
-236 -758 0
-236 -140 0
-236 765 0
-236 -764 0
-237 -757 -764 0
-237 -757 -238 0
-237 757 764 238 0
237 757 -764 0
237 757 -238 0
237 -757 764 238 0
-238 758 140 0
238 -758 0
238 -140 0
-239 240 241 0
-239 -240 -241 0
239 -240 241 0
239 240 -241 0
240 -214 215 0
-240 214 0
-240 -215 0
-241 242 243 0
-241 -242 -243 0
241 -242 243 0
241 242 -243 0
242 -216 217 0
-242 216 0
-242 -217 0
-243 244 245 0
-243 -244 -245 0
243 -244 245 0
243 244 -245 0
244 -218 219 0
-244 218 0
-244 -219 0
-245 246 247 0
-245 -246 -247 0
245 -246 247 0
245 246 -247 0
246 -220 221 0
-246 220 0
-246 -221 0
-247 248 249 0
-247 -248 -249 0
247 -248 249 0
247 248 -249 0
248 -222 223 0
-248 222 0
-248 -223 0
-249 250 251 0
-249 -250 -251 0
249 -250 251 0
249 250 -251 0
250 -224 225 0
-250 224 0
-250 -225 0
-251 252 253 0
-251 -252 -253 0
251 -252 253 0
251 252 -253 0
252 -226 227 0
-252 226 0
-252 -227 0
-253 254 255 0
-253 -254 -255 0
253 -254 255 0
253 254 -255 0
254 -228 229 0
-254 228 0
-254 -229 0
-255 256 257 0
-255 -256 -257 0
255 -256 257 0
255 256 -257 0
256 -230 231 0
-256 230 0
-256 -231 0
-257 258 259 0
-257 -258 -259 0
257 -258 259 0
257 258 -259 0
258 -232 233 0
-258 232 0
-258 -233 0
-259 260 261 0
-259 -260 -261 0
259 -260 261 0
259 260 -261 0
260 -234 235 0
-260 234 0
-260 -235 0
-261 262 263 0
-261 -262 -263 0
261 -262 263 0
261 262 -263 0
262 -236 237 0
-262 236 0
-262 -237 0
-263 264 266 0
-263 -264 -266 0
263 -264 266 0
263 264 -266 0
264 -764 265 0
-264 764 0
-264 -265 0
-265 757 238 0
265 -757 0
265 -238 0
-266 267 268 0
-266 -267 -268 0
266 -267 268 0
266 267 -268 0
267 757 758 -763 141 0
-267 -757 0
-267 -141 0
-267 763 0
-267 -758 0
-268 -756 -762 0
-268 -756 -269 0
-268 756 762 269 0
268 756 -762 0
268 756 -269 0
268 -756 762 269 0
-269 757 758 761 142 0
269 -142 0
269 -761 0
269 -757 0
269 -758 0
270 271 -272 0
-270 -271 0
-270 272 0
-271 15 213 0
-271 -15 -213 0
271 -15 213 0
271 15 -213 0
272 273 -274 0
-272 -273 0
-272 274 0
-273 -16 -183 0
-273 16 183 0
273 16 -183 0
273 -16 183 0
274 275 -276 0
-274 -275 0
-274 276 0
-275 -184 -185 0
-275 184 185 0
275 184 -185 0
275 -184 185 0
276 277 -278 0
-276 -277 0
-276 278 0
-277 -186 -187 0
-277 186 187 0
277 186 -187 0
277 -186 187 0
278 279 -280 0
-278 -279 0
-278 280 0
-279 -188 -189 0
-279 188 189 0
279 188 -189 0
279 -188 189 0
280 281 -282 0
-280 -281 0
-280 282 0
-281 -190 -191 0
-281 190 191 0
281 190 -191 0
281 -190 191 0
282 283 -284 0
-282 -283 0
-282 284 0
-283 -192 -193 0
-283 192 193 0
283 192 -193 0
283 -192 193 0
284 285 -286 0
-284 -285 0
-284 286 0
-285 -194 -195 0
-285 194 195 0
285 194 -195 0
285 -194 195 0
286 287 -288 0
-286 -287 0
-286 288 0
-287 -196 -197 0
-287 196 197 0
287 196 -197 0
287 -196 197 0
288 289 -290 0
-288 -289 0
-288 290 0
-289 -198 -199 0
-289 198 199 0
289 198 -199 0
289 -198 199 0
290 -291 296 0
-290 291 0
-290 -296 0
291 292 -293 0
-291 -292 0
-291 293 0
-292 202 210 0
-292 -202 -210 0
292 -202 210 0
292 202 -210 0
293 -294 295 0
-293 294 0
-293 -295 0
294 770 777 -778 206 0
-294 -770 0
-294 -206 0
-294 778 0
-294 -777 0
-295 -203 -209 0
-295 203 209 0
295 203 -209 0
295 -203 209 0
-296 -200 -201 0
-296 200 201 0
296 200 -201 0
296 -200 201 0
-297 298 299 0
-297 -298 -299 0
297 -298 299 0
297 298 -299 0
298 -14 239 0
-298 14 0
-298 -239 0
-299 300 301 0
-299 -300 -301 0
299 -300 301 0
299 300 -301 0
300 -240 241 0
-300 240 0
-300 -241 0
-301 302 303 0
-301 -302 -303 0
301 -302 303 0
301 302 -303 0
302 -242 243 0
-302 242 0
-302 -243 0
-303 304 305 0
-303 -304 -305 0
303 -304 305 0
303 304 -305 0
304 -244 245 0
-304 244 0
-304 -245 0
-305 306 307 0
-305 -306 -307 0
305 -306 307 0
305 306 -307 0
306 -246 247 0
-306 246 0
-306 -247 0
-307 308 309 0
-307 -308 -309 0
307 -308 309 0
307 308 -309 0
308 -248 249 0
-308 248 0
-308 -249 0
-309 310 311 0
-309 -310 -311 0
309 -310 311 0
309 310 -311 0
310 -250 251 0
-310 250 0
-310 -251 0
-311 312 313 0
-311 -312 -313 0
311 -312 313 0
311 312 -313 0
312 -252 253 0
-312 252 0
-312 -253 0
-313 314 315 0
-313 -314 -315 0
313 -314 315 0
313 314 -315 0
314 -254 255 0
-314 254 0
-314 -255 0
-315 316 317 0
-315 -316 -317 0
315 -316 317 0
315 316 -317 0
316 -256 257 0
-316 256 0
-316 -257 0
-317 318 319 0
-317 -318 -319 0
317 -318 319 0
317 318 -319 0
318 -258 259 0
-318 258 0
-318 -259 0
-319 320 321 0
-319 -320 -321 0
319 -320 321 0
319 320 -321 0
320 -260 261 0
-320 260 0
-320 -261 0
-321 322 323 0
-321 -322 -323 0
321 -322 323 0
321 322 -323 0
322 -262 263 0
-322 262 0
-322 -263 0
-323 324 325 0
-323 -324 -325 0
323 -324 325 0
323 324 -325 0
324 -264 266 0
-324 264 0
-324 -266 0
-325 326 327 0
-325 -326 -327 0
325 -326 327 0
325 326 -327 0
326 -267 268 0
-326 267 0
-326 -268 0
-327 -755 -762 0
-327 -755 -328 0
-327 755 762 328 0
327 755 -762 0
327 755 -328 0
327 -755 762 328 0
-328 756 269 0
328 -756 0
328 -269 0
329 330 -331 0
-329 -330 0
-329 331 0
-330 -13 -270 0
-330 13 270 0
330 13 -270 0
330 -13 270 0
331 332 -333 0
-331 -332 0
-331 333 0
-332 -271 -272 0
-332 271 272 0
332 271 -272 0
332 -271 272 0
333 334 -335 0
-333 -334 0
-333 335 0
-334 -273 -274 0
-334 273 274 0
334 273 -274 0
334 -273 274 0
335 336 -337 0
-335 -336 0
-335 337 0
-336 -275 -276 0
-336 275 276 0
336 275 -276 0
336 -275 276 0
337 338 -339 0
-337 -338 0
-337 339 0
-338 -277 -278 0
-338 277 278 0
338 277 -278 0
338 -277 278 0
339 340 -341 0
-339 -340 0
-339 341 0
-340 -279 -280 0
-340 279 280 0
340 279 -280 0
340 -279 280 0
341 342 -343 0
-341 -342 0
-341 343 0
-342 -281 -282 0
-342 281 282 0
342 281 -282 0
342 -281 282 0
343 344 -345 0
-343 -344 0
-343 345 0
-344 -283 -284 0
-344 283 284 0
344 283 -284 0
344 -283 284 0
345 346 -347 0
-345 -346 0
-345 347 0
-346 -285 -286 0
-346 285 286 0
346 285 -286 0
346 -285 286 0
347 348 -349 0
-347 -348 0
-347 349 0
-348 -287 -288 0
-348 287 288 0
348 287 -288 0
348 -287 288 0
349 350 -351 0
-349 -350 0
-349 351 0
-350 -289 -290 0
-350 289 290 0
350 289 -290 0
350 -289 290 0
351 -779 352 361 362 0
-351 -362 0
-351 779 0
-351 -361 0
-351 -352 0
-352 353 357 358 0
352 -353 0
352 -357 0
352 -358 0
-353 -354 -356 0
-353 354 356 0
353 354 -356 0
353 -354 356 0
-354 777 205 0
-354 -770 -205 -355 0
354 -777 205 0
354 -205 355 0
354 770 -205 0
-355 777 206 0
355 -777 0
355 -206 0
356 -778 355 0
-356 778 0
-356 -355 0
-357 -292 -293 0
-357 292 293 0
357 292 -293 0
357 -292 293 0
-358 778 355 359 0
358 -359 0
358 -355 0
358 -778 0
-359 772 777 778 360 0
359 -360 0
359 -778 0
359 -772 0
359 -777 0
-360 773 774 775 776 0
360 -776 0
360 -775 0
360 -773 0
360 -774 0
-361 291 296 0
-361 -291 -296 0
361 -291 296 0
361 291 -296 0
-362 294 295 0
-362 -294 -295 0
362 -294 295 0
362 294 -295 0
-363 364 365 0
-363 -364 -365 0
363 -364 365 0
363 364 -365 0
364 -12 297 0
-364 12 0
-364 -297 0
-365 366 367 0
-365 -366 -367 0
365 -366 367 0
365 366 -367 0
366 -298 299 0
-366 298 0
-366 -299 0
-367 368 369 0
-367 -368 -369 0
367 -368 369 0
367 368 -369 0
368 -300 301 0
-368 300 0
-368 -301 0
-369 370 371 0
-369 -370 -371 0
369 -370 371 0
369 370 -371 0
370 -302 303 0
-370 302 0
-370 -303 0
-371 372 373 0
-371 -372 -373 0
371 -372 373 0
371 372 -373 0
372 -304 305 0
-372 304 0
-372 -305 0
-373 374 375 0
-373 -374 -375 0
373 -374 375 0
373 374 -375 0
374 -306 307 0
-374 306 0
-374 -307 0
-375 376 377 0
-375 -376 -377 0
375 -376 377 0
375 376 -377 0
376 -308 309 0
-376 308 0
-376 -309 0
-377 378 379 0
-377 -378 -379 0
377 -378 379 0
377 378 -379 0
378 -310 311 0
-378 310 0
-378 -311 0
-379 380 381 0
-379 -380 -381 0
379 -380 381 0
379 380 -381 0
380 -312 313 0
-380 312 0
-380 -313 0
-381 382 383 0
-381 -382 -383 0
381 -382 383 0
381 382 -383 0
382 -314 315 0
-382 314 0
-382 -315 0
-383 384 385 0
-383 -384 -385 0
383 -384 385 0
383 384 -385 0
384 -316 317 0
-384 316 0
-384 -317 0
-385 386 387 0
-385 -386 -387 0
385 -386 387 0
385 386 -387 0
386 -318 319 0
-386 318 0
-386 -319 0
-387 388 389 0
-387 -388 -389 0
387 -388 389 0
387 388 -389 0
388 -320 321 0
-388 320 0
-388 -321 0
-389 390 391 0
-389 -390 -391 0
389 -390 391 0
389 390 -391 0
390 -322 323 0
-390 322 0
-390 -323 0
-391 392 393 0
-391 -392 -393 0
391 -392 393 0
391 392 -393 0
392 -324 325 0
-392 324 0
-392 -325 0
-393 394 395 0
-393 -394 -395 0
393 -394 395 0
393 394 -395 0
394 -326 327 0
-394 326 0
-394 -327 0
-395 396 398 0
-395 -396 -398 0
395 -396 398 0
395 396 -398 0
396 -762 397 0
-396 762 0
-396 -397 0
-397 755 328 0
397 -755 0
397 -328 0
-398 -754 -761 0
-398 754 761 142 399 0
-398 -754 -142 0
-398 -754 -399 0
398 754 -399 0
398 -754 761 142 399 0
398 754 -761 0
398 754 -142 0
-399 755 756 757 758 0
399 -758 0
399 -757 0
399 -755 0
399 -756 0
-400 401 402 0
-400 -401 -402 0
400 -401 402 0
400 401 -402 0
401 -364 365 0
-401 364 0
-401 -365 0
-402 403 404 0
-402 -403 -404 0
402 -403 404 0
402 403 -404 0
403 -366 367 0
-403 366 0
-403 -367 0
-404 405 406 0
-404 -405 -406 0
404 -405 406 0
404 405 -406 0
405 -368 369 0
-405 368 0
-405 -369 0
-406 407 408 0
-406 -407 -408 0
406 -407 408 0
406 407 -408 0
407 -370 371 0
-407 370 0
-407 -371 0
-408 409 410 0
-408 -409 -410 0
408 -409 410 0
408 409 -410 0
409 -372 373 0
-409 372 0
-409 -373 0
-410 411 412 0
-410 -411 -412 0
410 -411 412 0
410 411 -412 0
411 -374 375 0
-411 374 0
-411 -375 0
-412 413 414 0
-412 -413 -414 0
412 -413 414 0
412 413 -414 0
413 -376 377 0
-413 376 0
-413 -377 0
-414 415 416 0
-414 -415 -416 0
414 -415 416 0
414 415 -416 0
415 -378 379 0
-415 378 0
-415 -379 0
-416 417 418 0
-416 -417 -418 0
416 -417 418 0
416 417 -418 0
417 -380 381 0
-417 380 0
-417 -381 0
-418 419 420 0
-418 -419 -420 0
418 -419 420 0
418 419 -420 0
419 -382 383 0
-419 382 0
-419 -383 0
-420 421 422 0
-420 -421 -422 0
420 -421 422 0
420 421 -422 0
421 -384 385 0
-421 384 0
-421 -385 0
-422 423 424 0
-422 -423 -424 0
422 -423 424 0
422 423 -424 0
423 -386 387 0
-423 386 0
-423 -387 0
-424 425 426 0
-424 -425 -426 0
424 -425 426 0
424 425 -426 0
425 -388 389 0
-425 388 0
-425 -389 0
-426 427 428 0
-426 -427 -428 0
426 -427 428 0
426 427 -428 0
427 -390 391 0
-427 390 0
-427 -391 0
-428 429 430 0
-428 -429 -430 0
428 -429 430 0
428 429 -430 0
429 -392 393 0
-429 392 0
-429 -393 0
-430 431 432 0
-430 -431 -432 0
430 -431 432 0
430 431 -432 0
431 -394 395 0
-431 394 0
-431 -395 0
-432 433 434 0
-432 -433 -434 0
432 -433 434 0
432 433 -434 0
433 -396 398 0
-433 396 0
-433 -398 0
-434 435 436 0
-434 -435 -436 0
434 -435 436 0
434 435 -436 0
435 754 -761 142 399 0
-435 -754 0
-435 -399 0
-435 -142 0
-435 761 0
-436 -753 -759 0
-436 753 759 760 437 0
-436 -753 -760 0
-436 -753 -437 0
436 753 -437 0
436 -753 759 760 437 0
436 753 -759 0
436 753 -760 0
-437 754 399 0
437 -754 0
437 -399 0
438 439 -440 0
-438 -439 0
-438 440 0
-439 10 363 0
-439 -10 -363 0
439 -10 363 0
439 10 -363 0
440 441 -442 0
-440 -441 0
-440 442 0
-441 -11 -329 0
-441 11 329 0
441 11 -329 0
441 -11 329 0
442 443 -444 0
-442 -443 0
-442 444 0
-443 -330 -331 0
-443 330 331 0
443 330 -331 0
443 -330 331 0
444 445 -446 0
-444 -445 0
-444 446 0
-445 -332 -333 0
-445 332 333 0
445 332 -333 0
445 -332 333 0
446 447 -448 0
-446 -447 0
-446 448 0
-447 -334 -335 0
-447 334 335 0
447 334 -335 0
447 -334 335 0
448 449 -450 0
-448 -449 0
-448 450 0
-449 -336 -337 0
-449 336 337 0
449 336 -337 0
449 -336 337 0
450 451 -452 0
-450 -451 0
-450 452 0
-451 -338 -339 0
-451 338 339 0
451 338 -339 0
451 -338 339 0
452 453 -454 0
-452 -453 0
-452 454 0
-453 -340 -341 0
-453 340 341 0
453 340 -341 0
453 -340 341 0
454 455 -456 0
-454 -455 0
-454 456 0
-455 -342 -343 0
-455 342 343 0
455 342 -343 0
455 -342 343 0
456 457 -458 0
-456 -457 0
-456 458 0
-457 -344 -345 0
-457 344 345 0
457 344 -345 0
457 -344 345 0
458 459 -460 0
-458 -459 0
-458 460 0
-459 -346 -347 0
-459 346 347 0
459 346 -347 0
459 -346 347 0
460 -461 487 0
-460 461 0
-460 -487 0
461 462 -463 0
-461 -462 0
-461 463 0
-462 -350 -351 0
-462 350 351 0
462 350 -351 0
462 -350 351 0
463 -464 485 0
-463 464 0
-463 -485 0
464 465 -469 0
-464 -465 0
-464 469 0
-465 -357 -466 0
-465 357 466 0
465 357 -466 0
465 -357 466 0
466 362 -467 0
-466 -362 0
-466 467 0
467 353 -468 0
-467 -353 0
-467 468 0
468 -779 358 0
-468 779 0
-468 -358 0
469 470 -471 0
-469 -470 0
-469 471 0
-470 -362 -467 0
-470 362 467 0
470 362 -467 0
470 -362 467 0
471 472 -473 0
-471 -472 0
-471 473 0
-472 -353 -468 0
-472 353 468 0
472 353 -468 0
472 -353 468 0
473 474 -478 0
-473 -474 0
-473 478 0
-474 475 468 0
-474 468 -476 0
474 -468 0
474 -475 476 0
-475 778 355 0
-475 -771 -355 -359 0
475 -778 355 0
475 -355 359 0
475 771 -355 0
476 -779 359 477 0
-476 779 0
-476 -359 0
-476 -477 0
-477 777 778 360 0
477 -360 0
477 -778 0
477 -777 0
478 479 -482 0
-478 -479 0
-478 482 0
-479 -480 -481 0
-479 480 481 0
479 480 -481 0
479 -480 481 0
480 -359 477 0
480 772 -359 0
-480 359 0
-480 -772 -477 0
481 -779 477 0
-481 779 0
-481 -477 0
482 773 -780 483 0
-482 -483 0
-482 780 0
-482 -773 0
-483 774 779 208 484 0
483 -774 0
483 -484 0
483 -208 0
483 -779 0
-484 777 778 0
484 -777 0
484 -778 0
-485 361 351 0
-485 351 -486 0
485 -351 0
485 -361 486 0
486 357 -466 0
-486 -357 0
-486 466 0
-487 -348 -349 0
-487 348 349 0
487 348 -349 0
487 -348 349 0
488 -489 527 0
-488 489 0
-488 -527 0
489 490 -491 0
-489 -490 0
-489 491 0
-490 -441 -442 0
-490 441 442 0
490 441 -442 0
490 -441 442 0
491 492 -493 0
-491 -492 0
-491 493 0
-492 -443 -444 0
-492 443 444 0
492 443 -444 0
492 -443 444 0
493 494 -495 0
-493 -494 0
-493 495 0
-494 -445 -446 0
-494 445 446 0
494 445 -446 0
494 -445 446 0
495 496 -497 0
-495 -496 0
-495 497 0
-496 -447 -448 0
-496 447 448 0
496 447 -448 0
496 -447 448 0
497 498 -499 0
-497 -498 0
-497 499 0
-498 -449 -450 0
-498 449 450 0
498 449 -450 0
498 -449 450 0
499 500 -501 0
-499 -500 0
-499 501 0
-500 -451 -452 0
-500 451 452 0
500 451 -452 0
500 -451 452 0
501 502 -503 0
-501 -502 0
-501 503 0
-502 -453 -454 0
-502 453 454 0
502 453 -454 0
502 -453 454 0
503 -504 526 0
-503 504 0
-503 -526 0
504 505 -506 0
-504 -505 0
-504 506 0
-505 -457 -458 0
-505 457 458 0
505 457 -458 0
505 -457 458 0
506 -507 525 0
-506 507 0
-506 -525 0
507 508 -509 0
-507 -508 0
-507 509 0
-508 461 487 0
-508 -461 -487 0
508 -461 487 0
508 461 -487 0
509 -510 524 0
-509 510 0
-509 -524 0
510 511 -512 0
-510 -511 0
-510 512 0
-511 464 485 0
-511 -464 -485 0
511 -464 485 0
511 464 -485 0
512 -513 523 0
-512 513 0
-512 -523 0
513 514 -515 0
-513 -514 0
-513 515 0
-514 -470 -471 0
-514 470 471 0
514 470 -471 0
514 -470 471 0
515 516 -517 0
-515 -516 0
-515 517 0
-516 -472 -473 0
-516 472 473 0
516 472 -473 0
516 -472 473 0
517 518 -519 0
-517 -518 0
-517 519 0
-518 -474 -478 0
-518 474 478 0
518 474 -478 0
518 -474 478 0
519 520 -521 0
-519 -520 0
-519 521 0
-520 -479 -482 0
-520 479 482 0
520 479 -482 0
520 -479 482 0
521 773 -781 522 0
-521 -522 0
-521 781 0
-521 -773 0
-522 780 483 0
522 -780 0
522 -483 0
-523 -465 -469 0
-523 465 469 0
523 465 -469 0
523 -465 469 0
-524 -462 -463 0
-524 462 463 0
524 462 -463 0
524 -462 463 0
-525 -459 -460 0
-525 459 460 0
525 459 -460 0
525 -459 460 0
-526 -455 -456 0
-526 455 456 0
526 455 -456 0
526 -455 456 0
-527 -439 -440 0
-527 439 440 0
527 439 -440 0
527 -439 440 0
-528 529 530 0
-528 -529 -530 0
528 -529 530 0
528 529 -530 0
529 8 -438 0
-529 -8 0
-529 438 0
-530 531 532 0
-530 -531 -532 0
530 -531 532 0
530 531 -532 0
531 -9 400 0
-531 9 0
-531 -400 0
-532 533 534 0
-532 -533 -534 0
532 -533 534 0
532 533 -534 0
533 -401 402 0
-533 401 0
-533 -402 0
-534 535 536 0
-534 -535 -536 0
534 -535 536 0
534 535 -536 0
535 -403 404 0
-535 403 0
-535 -404 0
-536 537 538 0
-536 -537 -538 0
536 -537 538 0
536 537 -538 0
537 -405 406 0
-537 405 0
-537 -406 0
-538 539 540 0
-538 -539 -540 0
538 -539 540 0
538 539 -540 0
539 -407 408 0
-539 407 0
-539 -408 0
-540 541 542 0
-540 -541 -542 0
540 -541 542 0
540 541 -542 0
541 -409 410 0
-541 409 0
-541 -410 0
-542 543 544 0
-542 -543 -544 0
542 -543 544 0
542 543 -544 0
543 -411 412 0
-543 411 0
-543 -412 0
-544 545 546 0
-544 -545 -546 0
544 -545 546 0
544 545 -546 0
545 -413 414 0
-545 413 0
-545 -414 0
-546 547 548 0
-546 -547 -548 0
546 -547 548 0
546 547 -548 0
547 -415 416 0
-547 415 0
-547 -416 0
-548 549 550 0
-548 -549 -550 0
548 -549 550 0
548 549 -550 0
549 -417 418 0
-549 417 0
-549 -418 0
-550 551 552 0
-550 -551 -552 0
550 -551 552 0
550 551 -552 0
551 -419 420 0
-551 419 0
-551 -420 0
-552 553 554 0
-552 -553 -554 0
552 -553 554 0
552 553 -554 0
553 -421 422 0
-553 421 0
-553 -422 0
-554 555 556 0
-554 -555 -556 0
554 -555 556 0
554 555 -556 0
555 -423 424 0
-555 423 0
-555 -424 0
-556 557 558 0
-556 -557 -558 0
556 -557 558 0
556 557 -558 0
557 -425 426 0
-557 425 0
-557 -426 0
-558 559 560 0
-558 -559 -560 0
558 -559 560 0
558 559 -560 0
559 -427 428 0
-559 427 0
-559 -428 0
-560 561 562 0
-560 -561 -562 0
560 -561 562 0
560 561 -562 0
561 -429 430 0
-561 429 0
-561 -430 0
-562 563 564 0
-562 -563 -564 0
562 -563 564 0
562 563 -564 0
563 -431 432 0
-563 431 0
-563 -432 0
-564 565 566 0
-564 -565 -566 0
564 -565 566 0
564 565 -566 0
565 -433 434 0
-565 433 0
-565 -434 0
-566 567 568 0
-566 -567 -568 0
566 -567 568 0
566 567 -568 0
567 -435 436 0
-567 435 0
-567 -436 0
-568 569 570 0
-568 -569 -570 0
568 -569 570 0
568 569 -570 0
569 753 759 -760 437 0
-569 -753 0
-569 -437 0
-569 760 0
-569 -759 0
-570 -571 -572 0
-570 571 572 0
570 571 -572 0
570 -571 572 0
571 753 -759 437 0
-571 -437 0
-571 759 0
-571 -753 0
572 -752 573 0
572 752 -573 0
-572 752 573 0
-572 -752 -573 0
-573 753 437 0
573 -753 0
573 -437 0
-574 575 610 0
574 -575 0
574 -610 0
-575 576 578 0
575 -576 0
575 -578 0
576 -782 -577 0
-576 782 0
-576 577 0
-577 489 527 0
-577 -489 -527 0
577 -489 527 0
577 489 -527 0
-578 579 581 0
578 -579 0
578 -581 0
579 -782 -580 0
-579 782 0
-579 580 0
-580 -490 -491 0
-580 490 491 0
580 490 -491 0
580 -490 491 0
-581 582 584 0
581 -582 0
581 -584 0
582 -782 -583 0
-582 782 0
-582 583 0
-583 -492 -493 0
-583 492 493 0
583 492 -493 0
583 -492 493 0
-584 585 608 0
584 -585 0
584 -608 0
-585 586 588 0
585 -586 0
585 -588 0
586 -782 -587 0
-586 782 0
-586 587 0
-587 -496 -497 0
-587 496 497 0
587 496 -497 0
587 -496 497 0
-588 589 591 0
588 -589 0
588 -591 0
589 -782 -590 0
-589 782 0
-589 590 0
-590 -498 -499 0
-590 498 499 0
590 498 -499 0
590 -498 499 0
-591 592 594 0
591 -592 0
591 -594 0
592 -782 -593 0
-592 782 0
-592 593 0
-593 -500 -501 0
-593 500 501 0
593 500 -501 0
593 -500 501 0
-594 782 596 598 0
-594 595 596 598 0
594 -598 0
594 -596 0
594 -782 -595 0
-595 -502 -503 0
-595 502 503 0
595 502 -503 0
595 -502 503 0
596 -782 -597 0
-596 782 0
-596 597 0
-597 504 526 0
-597 -504 -526 0
597 -504 526 0
597 504 -526 0
-598 782 599 0
-598 505 506 599 0
-598 -505 -506 599 0
598 -599 0
598 -782 -505 506 0
598 -782 505 -506 0
-599 782 600 0
-599 -507 -525 600 0
-599 507 525 600 0
599 -600 0
599 -782 507 -525 0
599 -782 -507 525 0
-600 782 601 0
-600 508 509 601 0
-600 -508 -509 601 0
600 -601 0
600 -782 -508 509 0
600 -782 508 -509 0
-601 782 602 0
-601 -510 -524 602 0
-601 510 524 602 0
601 -602 0
601 -782 510 -524 0
601 -782 -510 524 0
-602 782 603 0
-602 511 512 603 0
-602 -511 -512 603 0
602 -603 0
602 -782 -511 512 0
602 -782 511 -512 0
-603 782 604 0
-603 -513 -523 604 0
-603 513 523 604 0
603 -604 0
603 -782 513 -523 0
603 -782 -513 523 0
-604 782 605 0
-604 514 515 605 0
-604 -514 -515 605 0
604 -605 0
604 -782 -514 515 0
604 -782 514 -515 0
-605 782 606 0
-605 516 517 606 0
-605 -516 -517 606 0
605 -606 0
605 -782 -516 517 0
605 -782 516 -517 0
-606 782 0
-606 518 519 607 0
-606 -518 -519 607 0
606 -782 -607 0
606 -782 -518 519 0
606 -782 518 -519 0
-607 773 781 520 522 0
607 -773 0
607 -522 0
607 -520 0
607 -781 0
608 -782 -609 0
-608 782 0
-608 609 0
-609 -494 -495 0
-609 494 495 0
609 494 -495 0
609 -494 495 0
610 -782 -611 0
-610 782 0
-610 611 0
-611 -7 -488 0
-611 7 488 0
611 7 -488 0
611 -7 488 0
-612 613 662 0
-612 -613 -662 0
612 -613 662 0
612 613 -662 0
613 782 -614 0
613 -782 614 0
-613 -782 -614 0
-613 782 614 0
614 -615 659 0
614 615 -659 0
-614 615 659 0
-614 -615 -659 0
-615 616 656 0
-615 -616 -656 0
615 -616 656 0
615 616 -656 0
616 -617 653 0
616 617 -653 0
-616 617 653 0
-616 -617 -653 0
-617 618 619 0
-617 -618 -619 0
617 -618 619 0
617 618 -619 0
618 -539 540 0
-618 539 0
-618 -540 0
-619 620 650 0
-619 -620 -650 0
619 -620 650 0
619 620 -650 0
620 621 -622 0
620 -621 622 0
-620 -621 -622 0
-620 621 622 0
621 -545 546 0
-621 545 0
-621 -546 0
622 -623 647 0
622 623 -647 0
-622 623 647 0
-622 -623 -647 0
-623 -624 -625 0
-623 624 625 0
623 624 -625 0
623 -624 625 0
624 -551 552 0
-624 551 0
-624 -552 0
625 -626 644 0
625 626 -644 0
-625 626 644 0
-625 -626 -644 0
-626 627 641 0
-626 -627 -641 0
626 -627 641 0
626 627 -641 0
627 628 -631 0
627 -628 631 0
-627 -628 -631 0
-627 628 631 0
-628 629 630 0
628 -629 0
628 -630 0
629 -563 564 0
-629 563 0
-629 -564 0
630 -561 562 0
-630 561 0
-630 -562 0
631 -632 638 0
631 632 -638 0
-631 632 638 0
-631 -632 -638 0
-632 -633 -636 0
-632 633 636 0
632 633 -636 0
632 -633 636 0
-633 634 635 0
633 -634 0
633 -635 0
634 752 753 -759 437 0
-634 -752 0
-634 -437 0
-634 759 0
-634 -753 0
635 -569 570 0
-635 569 0
-635 -570 0
636 -751 637 0
636 751 -637 0
-636 751 637 0
-636 -751 -637 0
-637 752 573 0
637 -752 0
637 -573 0
-638 639 640 0
638 -639 0
638 -640 0
639 -567 568 0
-639 567 0
-639 -568 0
640 -565 566 0
-640 565 0
-640 -566 0
-641 642 643 0
641 -642 0
641 -643 0
642 -559 560 0
-642 559 0
-642 -560 0
643 -557 558 0
-643 557 0
-643 -558 0
-644 645 646 0
644 -645 0
644 -646 0
645 -555 556 0
-645 555 0
-645 -556 0
646 -553 554 0
-646 553 0
-646 -554 0
-647 648 649 0
647 -648 0
647 -649 0
648 -549 550 0
-648 549 0
-648 -550 0
649 -547 548 0
-649 547 0
-649 -548 0
-650 651 652 0
650 -651 0
650 -652 0
651 -543 544 0
-651 543 0
-651 -544 0
652 -541 542 0
-652 541 0
-652 -542 0
-653 654 655 0
653 -654 0
653 -655 0
654 -537 538 0
-654 537 0
-654 -538 0
655 -535 536 0
-655 535 0
-655 -536 0
-656 657 658 0
656 -657 0
656 -658 0
657 -533 534 0
-657 533 0
-657 -534 0
658 -531 532 0
-658 531 0
-658 -532 0
-659 660 661 0
659 -660 0
659 -661 0
660 -529 530 0
-660 529 0
-660 -530 0
661 -6 528 0
-661 6 0
-661 -528 0
-662 751 663 0
-662 -751 -663 0
662 -751 663 0
662 751 -663 0
-663 752 664 0
663 -752 0
663 -664 0
-664 753 665 0
664 -753 0
664 -665 0
-665 754 666 0
665 -754 0
665 -666 0
-666 755 667 0
666 -755 0
666 -667 0
-667 756 668 0
667 -756 0
667 -668 0
-668 757 669 0
668 -757 0
668 -669 0
-669 758 670 0
669 -758 0
669 -670 0
-670 759 671 0
670 -759 0
670 -671 0
-671 760 672 0
671 -760 0
671 -672 0
-672 761 673 0
672 -761 0
672 -673 0
-673 762 674 0
673 -762 0
673 -674 0
-674 763 764 765 675 0
674 -675 0
674 -765 0
674 -763 0
674 -764 0
-675 766 767 768 676 0
675 -676 0
675 -768 0
675 -766 0
675 -767 0
-676 769 770 771 677 0
676 -677 0
676 -771 0
676 -769 0
676 -770 0
-677 772 782 678 0
677 -678 0
677 -782 0
677 -772 0
-678 773 781 522 0
678 -522 0
678 -781 0
678 -773 0
-679 -720 683 0
-679 -574 -680 683 0
-679 574 680 683 0
679 -683 0
679 720 -574 680 0
679 720 574 -680 0
-680 -681 -682 0
-680 681 682 0
680 681 -682 0
680 -681 682 0
681 -782 5 0
681 782 -5 0
-681 782 5 0
-681 -782 -5 0
682 -752 664 0
682 752 -664 0
-682 752 664 0
-682 -752 -664 0
-683 -721 687 0
-683 -575 -684 687 0
-683 575 684 687 0
683 -687 0
683 721 -575 684 0
683 721 575 -684 0
-684 -685 -686 0
-684 685 686 0
684 685 -686 0
684 -685 686 0
685 -782 611 0
685 782 -611 0
-685 782 611 0
-685 -782 -611 0
686 -753 665 0
686 753 -665 0
-686 753 665 0
-686 -753 -665 0
-687 -722 691 0
-687 -578 -688 691 0
-687 578 688 691 0
687 -691 0
687 722 -578 688 0
687 722 578 -688 0
-688 -689 -690 0
-688 689 690 0
688 689 -690 0
688 -689 690 0
689 -782 577 0
689 782 -577 0
-689 782 577 0
-689 -782 -577 0
690 -754 666 0
690 754 -666 0
-690 754 666 0
-690 -754 -666 0
-691 -723 695 0
-691 -581 -692 695 0
-691 581 692 695 0
691 -695 0
691 723 -581 692 0
691 723 581 -692 0
-692 -693 -694 0
-692 693 694 0
692 693 -694 0
692 -693 694 0
693 -782 580 0
693 782 -580 0
-693 782 580 0
-693 -782 -580 0
694 -755 667 0
694 755 -667 0
-694 755 667 0
-694 -755 -667 0
-695 -724 699 0
-695 -584 -696 699 0
-695 584 696 699 0
695 -699 0
695 724 -584 696 0
695 724 584 -696 0
-696 -697 -698 0
-696 697 698 0
696 697 -698 0
696 -697 698 0
697 -782 583 0
697 782 -583 0
-697 782 583 0
-697 -782 -583 0
698 -756 668 0
698 756 -668 0
-698 756 668 0
-698 -756 -668 0
-699 -725 703 0
-699 -585 -700 703 0
-699 585 700 703 0
699 -703 0
699 725 -585 700 0
699 725 585 -700 0
-700 -701 -702 0
-700 701 702 0
700 701 -702 0
700 -701 702 0
701 -782 609 0
701 782 -609 0
-701 782 609 0
-701 -782 -609 0
702 -757 669 0
702 757 -669 0
-702 757 669 0
-702 -757 -669 0
-703 -726 707 0
-703 -588 -704 707 0
-703 588 704 707 0
703 -707 0
703 726 -588 704 0
703 726 588 -704 0
-704 -705 -706 0
-704 705 706 0
704 705 -706 0
704 -705 706 0
705 -782 587 0
705 782 -587 0
-705 782 587 0
-705 -782 -587 0
706 -758 670 0
706 758 -670 0
-706 758 670 0
-706 -758 -670 0
-707 -727 711 0
-707 -591 -708 711 0
-707 591 708 711 0
707 -711 0
707 727 -591 708 0
707 727 591 -708 0
-708 -709 -710 0
-708 709 710 0
708 709 -710 0
708 -709 710 0
709 -782 590 0
709 782 -590 0
-709 782 590 0
-709 -782 -590 0
710 -759 671 0
710 759 -671 0
-710 759 671 0
-710 -759 -671 0
-711 -730 712 0
-711 -598 712 -716 0
-711 598 712 716 0
711 -712 0
711 730 -598 716 0
711 730 598 -716 0
712 728 594 -713 0
712 728 -594 713 0
-712 -728 0
-712 594 713 0
-712 -594 -713 0
-713 -714 -715 0
-713 714 715 0
713 714 -715 0
713 -714 715 0
714 -782 593 0
714 782 -593 0
-714 782 593 0
-714 -782 -593 0
715 -760 672 0
715 760 -672 0
-715 760 672 0
-715 -760 -672 0
-716 -717 -718 0
-716 717 718 0
716 717 -718 0
716 -717 718 0
717 -782 597 0
717 782 -597 0
-717 782 597 0
-717 -782 -597 0
718 -762 674 0
718 762 -674 0
-718 762 674 0
-718 -762 -674 0
-783 0
2 0

